ilp_joint_2/output/chemical change_ilp.lp
Maximize
  0.00177316 Z_101_1_0 + 0.00241679355016111 Z_101_1_1
   + 0.45003403593435 Z_101_1_2 + 0.00904192315318024 Z_101_1_3
   + 0.00177316 Z_101_2_0 + 0.00241679355016111 Z_101_2_1
   + 0.45003403593435 Z_101_2_2 + 0.00904192315318024 Z_101_2_3
Subject To
 constraint1_1011: Z_101_1_0 + Z_101_1_1 + Z_101_1_2 + Z_101_1_3 <= 1
 constraint1_1012: Z_101_2_0 + Z_101_2_1 + Z_101_2_2 + Z_101_2_3 <= 1
 constraint2_450: <= 1
 constraint2_451: <= 1
 constraint2_452: <= 1
 constraint2_453: <= 1
 constraint2_1220: <= 1
 constraint2_1221: <= 1
 constraint2_1222: <= 1
 constraint2_1223: <= 1
 constraint2_1010: Z_101_1_0 + Z_101_2_0 <= 1
 constraint2_1011: Z_101_1_1 + Z_101_2_1 <= 1
 constraint2_1012: Z_101_1_2 + Z_101_2_2 <= 1
 constraint2_1013: Z_101_1_3 + Z_101_2_3 <= 1
 constraint2_850: <= 1
 constraint2_851: <= 1
 constraint2_852: <= 1
 constraint2_853: <= 1
Bounds
Binaries
 Z_101_1_0 Z_101_1_1 Z_101_1_2 Z_101_1_3 Z_101_2_0 Z_101_2_1 Z_101_2_2
 Z_101_2_3
End
