ilp_joint_2/output/chemical change_ilp.mps
NAME chemical change_srl_ilp
* Max problem is converted into Min one
ROWS
 N  OBJ
 L  constraint1_1011
 L  constraint1_1012
 L  constraint2_450
 L  constraint2_451
 L  constraint2_452
 L  constraint2_453
 L  constraint2_1220
 L  constraint2_1221
 L  constraint2_1222
 L  constraint2_1223
 L  constraint2_1010
 L  constraint2_1011
 L  constraint2_1012
 L  constraint2_1013
 L  constraint2_850
 L  constraint2_851
 L  constraint2_852
 L  constraint2_853
COLUMNS
    MARKER    'MARKER'                 'INTORG'
    Z_101_1_0  OBJ       -1.7731599887090277e-03
    Z_101_1_0  constraint1_1011  1
    Z_101_1_0  constraint2_1010  1
    Z_101_1_1  OBJ       -2.4167935501611115e-03
    Z_101_1_1  constraint1_1011  1
    Z_101_1_1  constraint2_1011  1
    Z_101_1_2  OBJ       -4.5003403593434999e-01
    Z_101_1_2  constraint1_1011  1
    Z_101_1_2  constraint2_1012  1
    Z_101_1_3  OBJ       -9.0419231531802396e-03
    Z_101_1_3  constraint1_1011  1
    Z_101_1_3  constraint2_1013  1
    Z_101_2_0  OBJ       -1.7731599887090277e-03
    Z_101_2_0  constraint1_1012  1
    Z_101_2_0  constraint2_1010  1
    Z_101_2_1  OBJ       -2.4167935501611115e-03
    Z_101_2_1  constraint1_1012  1
    Z_101_2_1  constraint2_1011  1
    Z_101_2_2  OBJ       -4.5003403593434999e-01
    Z_101_2_2  constraint1_1012  1
    Z_101_2_2  constraint2_1012  1
    Z_101_2_3  OBJ       -9.0419231531802396e-03
    Z_101_2_3  constraint1_1012  1
    Z_101_2_3  constraint2_1013  1
    MARKER    'MARKER'                 'INTEND'
RHS
    RHS1      constraint1_1011  1
    RHS1      constraint1_1012  1
    RHS1      constraint2_450  1
    RHS1      constraint2_451  1
    RHS1      constraint2_452  1
    RHS1      constraint2_453  1
    RHS1      constraint2_1220  1
    RHS1      constraint2_1221  1
    RHS1      constraint2_1222  1
    RHS1      constraint2_1223  1
    RHS1      constraint2_1010  1
    RHS1      constraint2_1011  1
    RHS1      constraint2_1012  1
    RHS1      constraint2_1013  1
    RHS1      constraint2_850  1
    RHS1      constraint2_851  1
    RHS1      constraint2_852  1
    RHS1      constraint2_853  1
BOUNDS
 UP BND1      Z_101_1_0  1
 UP BND1      Z_101_1_1  1
 UP BND1      Z_101_1_2  1
 UP BND1      Z_101_1_3  1
 UP BND1      Z_101_2_0  1
 UP BND1      Z_101_2_1  1
 UP BND1      Z_101_2_2  1
 UP BND1      Z_101_2_3  1
ENDATA
