ilp_joint_2/output/chemical change_ilp.sol
# Solution for model chemical change_srl_ilp
# Objective value = 4.5907595908753024e-01
Z_101_1_0 0
Z_101_1_1 0
Z_101_1_2 1
Z_101_1_3 0
Z_101_2_0 0
Z_101_2_1 0
Z_101_2_2 0
Z_101_2_3 1
